Route #1: 27 2
Route #2: 23 21 28 44
Route #3: 36 8 6
Route #4: 34 9 3 14 16 46 42 25
Route #5: 4 39 49 17
Route #6: 43 45 18 5 33 38
Route #7: 48 37 10 31 26 7 19 20 50 13
Route #8: 32 1 35
Route #9: 11 40 41 29 24
Route #10: 15 47 12 22 30
Cost 8110642.000000